11294       10979
11420       10947
11446       11150
11347       11127
11311       11132
11282       11085
11456       11194
11415       11126
11343       10965
11422       111228 71 22 48 26 17 25 55 74 10 60 46 53 25 70 41 51 59 99 96  1 20 46 54 88 82 11 45 45 79 79 43 41 61 60 17 87 55 28 50  8 81 65 75 70 10 16 68 18 25  3 39 55 38 27 46 91 61 15 97 40 83 97 72 28 95 42 12  6 39 53 74 89 36 13 61 83 19  9 95 79 30 88 45 90 81 45 66 73 96  4 76 43 52 54 49 92  5 18 57 39 81  6 11 54 73 34 91 86 65 41 96  1  9 59 96 96 76  3 67 21 88 92 64 18 54 65 29 10 91 34 65 58 84 10 14 56 84
